c seed= 1883629505
p cnf 8 32
8 7 -3 0
8 3 6 0
2 1 -5 0
8 -4 1 0
5 1 3 0
-8 7 3 0
-6 -7 2 0
-1 -3 -5 0
7 -8 -2 0
5 -6 -4 0
-8 -5 -6 0
7 8 -3 0
-4 -2 -8 0
8 -2 6 0
-8 -4 -6 0
2 7 -6 0
7 3 4 0
-2 6 -8 0
-1 8 6 0
3 -2 4 0
-6 3 8 0
-2 -1 7 0
-3 8 -5 0
3 -7 -4 0
7 -4 3 0
4 5 8 0
-7 2 -6 0
-3 6 -8 0
2 3 6 0
-6 -8 -2 0
-6 -5 8 0
5 -8 4 0
